#######################



#######################
Set parameter TimeLimit to value 300
Set parameter SoftMemLimit to value 125
Set parameter MIPFocus to value 2
Set parameter LogFile to value 1003-MIPFocus2-Presolve2-TimeLimit300-k16x240-3.log
Set parameter Presolve to value 2
Set parameter Seed to value 3
Using license file /opt/gurobi/gurobi.lic

Gurobi Optimizer version 10.0.3 build v10.0.3rc0 (linux64)
Copyright (c) 2023, Gurobi Optimization, LLC

Read MPS format model from file /miplib2010/k16x240.mps.bz2
Reading time = 0.00 seconds
k16x240: 256 rows, 480 columns, 960 nonzeros

CPU model: Intel(R) Xeon(R) E-2388G CPU @ 3.20GHz, instruction set [SSE2|AVX|AVX2|AVX512]
Thread count: 8 physical cores, 16 logical processors, using up to 16 threads

Optimize a model with 256 rows, 480 columns and 960 nonzeros
Model fingerprint: 0x4e80885f
Variable types: 240 continuous, 240 integer (240 binary)
Coefficient statistics:
  Matrix range     [1e+00, 1e+03]
  Objective range  [1e+00, 1e+03]
  Bounds range     [1e+00, 1e+03]
  RHS range        [4e+00, 4e+02]
Found heuristic solution: objective 20220.000000
Presolve time: 0.00s
Presolved: 256 rows, 480 columns, 960 nonzeros
Variable types: 240 continuous, 240 integer (240 binary)
Root relaxation presolve removed 241 rows and 240 columns
Root relaxation presolved: 15 rows, 240 columns, 450 nonzeros


Root relaxation: objective 2.769838e+03, 16 iterations, 0.00 seconds (0.00 work units)

    Nodes    |    Current Node    |     Objective Bounds      |     Work
 Expl Unexpl |  Obj  Depth IntInf | Incumbent    BestBd   Gap | It/Node Time

     0     0 2769.83800    0   14 20220.0000 2769.83800  86.3%     -    0s
H    0     0                    11359.000000 2769.83800  75.6%     -    0s
H    0     0                    11331.000000 8116.87580  28.4%     -    0s
H    0     0                    11261.000000 8116.87580  27.9%     -    0s
H    0     0                    11240.000000 8116.87580  27.8%     -    0s
H    0     0                    11133.000000 8116.87580  27.1%     -    0s
     0     0 8116.87580    0   26 11133.0000 8116.87580  27.1%     -    0s
H    0     0                    10967.000000 8116.87580  26.0%     -    0s
H    0     0                    10877.000000 8116.87580  25.4%     -    0s
     0     0 8588.30479    0   25 10877.0000 8588.30479  21.0%     -    0s
H    0     0                    10831.000000 8613.92228  20.5%     -    0s
     0     0 8613.92228    0   22 10831.0000 8613.92228  20.5%     -    0s
H    0     0                    10779.000000 8613.92228  20.1%     -    0s
H    0     0                    10674.000000 8711.67078  18.4%     -    0s
     0     0 8711.67078    0   22 10674.0000 8711.67078  18.4%     -    0s
     0     0 8841.44337    0   27 10674.0000 8841.44337  17.2%     -    0s
     0     0 8854.70005    0   41 10674.0000 8854.70005  17.0%     -    0s
     0     0 8856.63270    0   42 10674.0000 8856.63270  17.0%     -    0s
     0     0 9034.51848    0   51 10674.0000 9034.51848  15.4%     -    0s
     0     0 9048.30083    0   42 10674.0000 9048.30083  15.2%     -    0s
     0     0 9052.78048    0   46 10674.0000 9052.78048  15.2%     -    0s
     0     0 9124.73231    0   35 10674.0000 9124.73231  14.5%     -    0s
     0     0 9128.48193    0   36 10674.0000 9128.48193  14.5%     -    0s
     0     0 9150.53337    0   31 10674.0000 9150.53337  14.3%     -    0s
     0     0 9151.10496    0   31 10674.0000 9151.10496  14.3%     -    0s
     0     0 9169.34622    0   39 10674.0000 9169.34622  14.1%     -    0s
     0     0 9169.34622    0   39 10674.0000 9169.34622  14.1%     -    0s
     0     2 9169.34622    0   39 10674.0000 9169.34622  14.1%     -    0s
 29814 12040     cutoff   36      10674.0000 10025.4304  6.08%  26.0    5s
 75538 19827 10604.9547   27   22 10674.0000 10227.2451  4.19%  27.2   10s
 115356 19926 10404.2425   32   18 10674.0000 10344.3832  3.09%  27.4   15s
 158437 10338 10659.9313   38   16 10674.0000 10481.8827  1.80%  27.3   20s

Cutting planes:
  Gomory: 1
  Lift-and-project: 8
  Cover: 91
  Implied bound: 20
  MIR: 169
  Flow cover: 285
  Flow path: 33
  Inf proof: 5
  Zero half: 7
  Network: 48
  Relax-and-lift: 1

Explored 176713 nodes (4686397 simplex iterations) in 21.64 seconds (33.53 work units)
Thread count was 16 (of 16 available processors)

Solution count 10: 10674 10779 10831 ... 11359

Optimal solution found (tolerance 1.00e-04)
Best objective 1.067400000000e+04, best bound 1.067400000000e+04, gap 0.0000%
